Maximize
  - 3.9528116800128 edge_0_30_0_0 - 6.4946058494544 edge_0_32_0_0
   - 4.007238367726 edge_0_35_0_0 - 6.3896786488642 edge_0_39_0_0
   + 0.2587350918721355 edge_25_26_0_0 - 0.0888959019416775 edge_25_27_0_0
   - 0.1331421797904357 edge_25_28_0_0 - 0.0396328570900488 edge_25_30_0_0
   - 0.0702217402634094 edge_25_33_0_0 - 0.2346271480007831 edge_25_35_0_0
   - 0.5309944517661523 edge_25_36_0_0 - 0.6384766768307982 edge_25_39_0_0
   - 0.2266370116922134 edge_25_43_0_0 - 0.263831822443843 edge_25_46_0_0
   - 0.2423540834070312 edge_26_25_0_0 - 0.00852751580737246 edge_26_27_0_0
   - 0.224451221732759 edge_27_25_0_0 + 0.2043966175244725 edge_27_26_0_0
   - 0.0770904848856154 edge_27_28_0_0 - 0.5705393991474339 edge_28_26_0_0
   + 0.2884929373436813 edge_28_27_0_0 + 0.5276238893633751 edge_28_30_0_0
   - 0.100498936442806 edge_28_32_0_0 - 0.1162212719932658 edge_28_33_0_0
   - 0.4341849362295752 edge_28_35_0_0 - 1.027849407901954 edge_28_36_0_0
   - 1.158173414020337 edge_28_39_0_0 + 0.8864666177728041 edge_30_25_0_0
   + 2.483610680314572 edge_30_26_0_0 + 2.931380003074477 edge_30_27_0_0
   + 3.313862191917991 edge_30_28_0_0 + 0.3806362736868752 edge_30_31_0_0
   + 3.295730900411313 edge_30_32_0_0 + 1.668247198982539 edge_30_33_0_0
   + 1.695435084220153 edge_30_35_0_0 + 0.6233003407322192 edge_30_36_0_0
   - 0.00804795597002935 edge_30_37_0_0 + 0.8795840729033044 edge_30_39_0_0
   + 0.4658597446221164 edge_30_41_0_0 + 1.312113513549605 edge_30_42_0_0
   + 1.346973636572648 edge_30_43_0_0 - 0.6461193019158619 edge_30_44_0_0
   + 0.4335567261147049 edge_30_46_0_0 + 0.3414491400983303 edge_30_47_0_0
   - 1.557725923205085 edge_30_48_0_0 - 0.4876264127006111 edge_30_49_0_0
   - 0.2714373950124433 edge_31_28_0_0 - 0.3809446882473019 edge_31_33_0_0
   - 0.3819085115368128 edge_31_35_0_0 - 1.215068993287756 edge_31_36_0_0
   + 0.5248095150437118 edge_32_25_0_0 + 1.054713937876273 edge_32_26_0_0
   + 1.500150389547897 edge_32_27_0_0 + 0.9811275792449556 edge_32_28_0_0
   + 0.9328522020528529 edge_32_30_0_0 + 3.688851224678067 edge_32_31_0_0
   + 0.8148025108867408 edge_32_33_0_0 + 0.5909268091245331 edge_32_35_0_0
   - 0.534546073664377 edge_32_36_0_0 - 0.2253858599953393 edge_32_39_0_0
   + 0.3170812156359443 edge_32_41_0_0 + 0.1581016281922063 edge_32_42_0_0
   + 0.8836767113730607 edge_32_43_0_0 + 0.6461312108702424 edge_32_44_0_0
   + 0.4056742425898722 edge_32_46_0_0 - 1.081984399455332 edge_32_47_0_0
   - 0.4167409402126603 edge_33_35_0_0 + 0.3204167742112786 edge_35_25_0_0
   + 1.214630544418108 edge_35_26_0_0 + 1.460760430048546 edge_35_27_0_0
   + 1.150223360396834 edge_35_28_0_0 + 1.099154321552932 edge_35_30_0_0
   + 0.596589273528611 edge_35_31_0_0 + 1.110997301254702 edge_35_32_0_0
   + 1.680825322972937 edge_35_33_0_0 + 3.037098807029428 edge_35_36_0_0
   + 0.3571125369506774 edge_35_37_0_0 + 2.307690760349126 edge_35_39_0_0
   - 0.0868370877960486 edge_35_40_0_0 + 1.18455632937245 edge_35_41_0_0
   + 1.57052119809057 edge_35_42_0_0 + 1.603875049538145 edge_35_43_0_0
   + 0.0593603771015106 edge_35_44_0_0 + 0.721047463109815 edge_35_46_0_0
   + 0.3157101253606914 edge_35_47_0_0 - 1.054405346578452 edge_35_48_0_0
   - 0.0845013812101164 edge_35_49_0_0 - 0.364555195164909 edge_36_25_0_0
   - 1.258509569615905 edge_36_26_0_0 - 0.5106270389969729 edge_36_28_0_0
   - 1.048243150836979 edge_36_30_0_0 - 1.076336952943056 edge_36_32_0_0
   + 0.0916972823815051 edge_36_33_0_0 - 0.1698947081493504 edge_36_35_0_0
   + 0.6307138881319703 edge_36_37_0_0 + 0.6441369952928401 edge_36_39_0_0
   - 1.43295932830918 edge_36_40_0_0 - 0.1961748005149936 edge_36_41_0_0
   + 0.0899608488074133 edge_36_42_0_0 - 0.2699915813727432 edge_36_43_0_0
   - 0.3183341406326167 edge_36_44_0_0 - 0.5160052464237777 edge_36_46_0_0
   - 0.8856763000562189 edge_36_47_0_0 - 3.683937328914546 edge_36_48_0_0
   - 1.412063698848808 edge_36_49_0_0 - 0.0317013168201273 edge_37_36_0_0
   + 0.2070763561439511 edge_37_39_0_0 - 0.0879580813283535 edge_37_40_0_0
   - 1.097748404785337 edge_37_41_0_0 - 0.4438905061577104 edge_37_43_0_0
   - 1.635360776303719 edge_37_48_0_0 - 0.2001354583650981 edge_38_40_0_0
   - 0.1463317026531297 edge_39_25_0_0 - 1.191133466544993 edge_39_26_0_0
   + 0.1899488963121861 edge_39_27_0_0 - 1.325434114540059 edge_39_30_0_0
   - 0.9764980317477593 edge_39_32_0_0 - 0.02544301358356 edge_39_33_0_0
   - 0.4091116503804526 edge_39_35_0_0 + 1.454766213403524 edge_39_36_0_0
   + 2.200296965251447 edge_39_37_0_0 + 0.2811608930729463 edge_39_38_0_0
   + 0.0663972913638717 edge_39_40_0_0 + 2.732301610412776 edge_39_41_0_0
   + 1.162065388176895 edge_39_42_0_0 + 2.236231476828894 edge_39_43_0_0
   + 1.928916322372191 edge_39_44_0_0 + 1.181062978606112 edge_39_46_0_0
   + 0.6461647101551251 edge_39_47_0_0 - 0.4618051429312137 edge_39_48_0_0
   + 0.610178269375298 edge_39_49_0_0 - 0.2412856450334984 edge_41_25_0_0
   - 1.318916487744585 edge_41_26_0_0 + 0.029768608350717 edge_41_27_0_0
   - 1.527580577356628 edge_41_30_0_0 - 1.217322602942015 edge_41_32_0_0
   - 1.266139427341989 edge_41_33_0_0 + 0.6030442552866326 edge_41_36_0_0
   + 0.3101646775288657 edge_41_37_0_0 + 1.645075227082515 edge_41_38_0_0
   - 0.1770120075718475 edge_41_39_0_0 + 2.988920352867399 edge_41_40_0_0
   + 0.621776680474203 edge_41_42_0_0 + 1.625524558188981 edge_41_43_0_0
   + 1.953405650186509 edge_41_44_0_0 + 0.9536206210190596 edge_41_46_0_0
   - 0.1239312893387222 edge_41_47_0_0 - 0.8604256644347139 edge_41_49_0_0
   - 1.352393790148306 edge_42_41_0_0 - 0.6123809323575694 edge_42_44_0_0
   - 0.3123130867677785 edge_43_42_0_0 - 0.8835710800743192 edge_43_44_0_0
   - 0.033984162952555 edge_43_46_0_0 - 0.129319699799125 edge_44_40_0_0
   - 1.216444010880213 edge_44_41_0_0 - 0.5483735417955798 edge_44_42_0_0
   - 0.0379748027061946 edge_44_43_0_0 + 2.259805115580746 edge_44_46_0_0
   + 1.706293621681577 edge_44_47_0_0 - 0.2347899829616507 edge_44_48_0_0
   + 0.5273326165392588 edge_44_49_0_0 - 0.6986125202358516 edge_46_44_0_0
   - 0.3260806557807995 edge_46_47_0_0 - 0.801722882125754 edge_46_48_0_0
   - 0.8677068931481159 edge_46_49_0_0 - 1.22755925032704 edge_47_25_0_0
   - 1.283343580280481 edge_47_27_0_0 - 1.320468864851863 edge_47_30_0_0
   - 1.451346872012683 edge_47_41_0_0 - 0.621417196137136 edge_47_42_0_0
   - 0.5361860451615355 edge_47_43_0_0 - 0.5587528126866693 edge_47_44_0_0
   + 0.1346420232773981 edge_47_46_0_0 + 0.2226235174415082 edge_47_48_0_0
   + 0.8052026544258779 edge_47_49_0_0 - 0.4801429825071794 edge_48_47_0_0
   + 0.1553349373281536 edge_48_49_0_0 - 0.4230558531220873 edge_49_47_0_0
   + 1.780020395762063 edge_49_48_0_0
Subject To
 one_parent_1: = 1
 consume_one_flow_unit_1: = 1
 one_parent_2: = 1
 consume_one_flow_unit_2: = 1
 one_parent_3: = 1
 consume_one_flow_unit_3: = 1
 one_parent_4: = 1
 consume_one_flow_unit_4: = 1
 one_parent_5: = 1
 consume_one_flow_unit_5: = 1
 one_parent_6: = 1
 consume_one_flow_unit_6: = 1
 one_parent_7: = 1
 consume_one_flow_unit_7: = 1
 one_parent_8: = 1
 consume_one_flow_unit_8: = 1
 one_parent_9: = 1
 consume_one_flow_unit_9: = 1
 one_parent_10: = 1
 consume_one_flow_unit_10: = 1
 one_parent_11: = 1
 consume_one_flow_unit_11: = 1
 one_parent_12: = 1
 consume_one_flow_unit_12: = 1
 one_parent_13: = 1
 consume_one_flow_unit_13: = 1
 one_parent_14: = 1
 consume_one_flow_unit_14: = 1
 one_parent_15: = 1
 consume_one_flow_unit_15: = 1
 one_parent_16: = 1
 consume_one_flow_unit_16: = 1
 one_parent_17: = 1
 consume_one_flow_unit_17: = 1
 one_parent_18: = 1
 consume_one_flow_unit_18: = 1
 one_parent_19: = 1
 consume_one_flow_unit_19: = 1
 one_parent_20: = 1
 consume_one_flow_unit_20: = 1
 one_parent_21: = 1
 consume_one_flow_unit_21: = 1
 one_parent_22: = 1
 consume_one_flow_unit_22: = 1
 one_parent_23: = 1
 consume_one_flow_unit_23: = 1
 one_parent_24: = 1
 consume_one_flow_unit_24: = 1
 one_parent_25: edge_26_25_0_0 + edge_27_25_0_0 + edge_30_25_0_0
   + edge_32_25_0_0 + edge_35_25_0_0 + edge_36_25_0_0 + edge_39_25_0_0
   + edge_41_25_0_0 + edge_47_25_0_0 = 1
 consume_one_flow_unit_25: - flow_25_26_0_0 - flow_25_27_0_0
   - flow_25_28_0_0 - flow_25_30_0_0 - flow_25_33_0_0 - flow_25_35_0_0
   - flow_25_36_0_0 - flow_25_39_0_0 - flow_25_43_0_0 - flow_25_46_0_0
   + flow_26_25_0_0 + flow_27_25_0_0 + flow_30_25_0_0 + flow_32_25_0_0
   + flow_35_25_0_0 + flow_36_25_0_0 + flow_39_25_0_0 + flow_41_25_0_0
   + flow_47_25_0_0 = 1
 one_parent_26: edge_25_26_0_0 + edge_27_26_0_0 + edge_28_26_0_0
   + edge_30_26_0_0 + edge_32_26_0_0 + edge_35_26_0_0 + edge_36_26_0_0
   + edge_39_26_0_0 + edge_41_26_0_0 = 1
 consume_one_flow_unit_26: flow_25_26_0_0 - flow_26_25_0_0 - flow_26_27_0_0
   + flow_27_26_0_0 + flow_28_26_0_0 + flow_30_26_0_0 + flow_32_26_0_0
   + flow_35_26_0_0 + flow_36_26_0_0 + flow_39_26_0_0 + flow_41_26_0_0 = 1
 one_parent_27: edge_25_27_0_0 + edge_26_27_0_0 + edge_28_27_0_0
   + edge_30_27_0_0 + edge_32_27_0_0 + edge_35_27_0_0 + edge_39_27_0_0
   + edge_41_27_0_0 + edge_47_27_0_0 = 1
 consume_one_flow_unit_27: flow_25_27_0_0 + flow_26_27_0_0 - flow_27_25_0_0
   - flow_27_26_0_0 - flow_27_28_0_0 + flow_28_27_0_0 + flow_30_27_0_0
   + flow_32_27_0_0 + flow_35_27_0_0 + flow_39_27_0_0 + flow_41_27_0_0
   + flow_47_27_0_0 = 1
 one_parent_28: edge_25_28_0_0 + edge_27_28_0_0 + edge_30_28_0_0
   + edge_31_28_0_0 + edge_32_28_0_0 + edge_35_28_0_0 + edge_36_28_0_0 = 1
 consume_one_flow_unit_28: flow_25_28_0_0 + flow_27_28_0_0 - flow_28_26_0_0
   - flow_28_27_0_0 - flow_28_30_0_0 - flow_28_32_0_0 - flow_28_33_0_0
   - flow_28_35_0_0 - flow_28_36_0_0 - flow_28_39_0_0 + flow_30_28_0_0
   + flow_31_28_0_0 + flow_32_28_0_0 + flow_35_28_0_0 + flow_36_28_0_0 = 1
 one_parent_29: = 1
 consume_one_flow_unit_29: = 1
 one_parent_30: edge_0_30_0_0 + edge_25_30_0_0 + edge_28_30_0_0
   + edge_32_30_0_0 + edge_35_30_0_0 + edge_36_30_0_0 + edge_39_30_0_0
   + edge_41_30_0_0 + edge_47_30_0_0 = 1
 consume_one_flow_unit_30: flow_0_30_0_0 + flow_25_30_0_0 + flow_28_30_0_0
   - flow_30_25_0_0 - flow_30_26_0_0 - flow_30_27_0_0 - flow_30_28_0_0
   - flow_30_31_0_0 - flow_30_32_0_0 - flow_30_33_0_0 - flow_30_35_0_0
   - flow_30_36_0_0 - flow_30_37_0_0 - flow_30_39_0_0 - flow_30_41_0_0
   - flow_30_42_0_0 - flow_30_43_0_0 - flow_30_44_0_0 - flow_30_46_0_0
   - flow_30_47_0_0 - flow_30_48_0_0 - flow_30_49_0_0 + flow_32_30_0_0
   + flow_35_30_0_0 + flow_36_30_0_0 + flow_39_30_0_0 + flow_41_30_0_0
   + flow_47_30_0_0 = 1
 one_parent_31: edge_30_31_0_0 + edge_32_31_0_0 + edge_35_31_0_0 = 1
 consume_one_flow_unit_31: flow_30_31_0_0 - flow_31_28_0_0 - flow_31_33_0_0
   - flow_31_35_0_0 - flow_31_36_0_0 + flow_32_31_0_0 + flow_35_31_0_0 = 1
 one_parent_32: edge_0_32_0_0 + edge_28_32_0_0 + edge_30_32_0_0
   + edge_35_32_0_0 + edge_36_32_0_0 + edge_39_32_0_0 + edge_41_32_0_0 = 1
 consume_one_flow_unit_32: flow_0_32_0_0 + flow_28_32_0_0 + flow_30_32_0_0
   - flow_32_25_0_0 - flow_32_26_0_0 - flow_32_27_0_0 - flow_32_28_0_0
   - flow_32_30_0_0 - flow_32_31_0_0 - flow_32_33_0_0 - flow_32_35_0_0
   - flow_32_36_0_0 - flow_32_39_0_0 - flow_32_41_0_0 - flow_32_42_0_0
   - flow_32_43_0_0 - flow_32_44_0_0 - flow_32_46_0_0 - flow_32_47_0_0
   + flow_35_32_0_0 + flow_36_32_0_0 + flow_39_32_0_0 + flow_41_32_0_0 = 1
 one_parent_33: edge_25_33_0_0 + edge_28_33_0_0 + edge_30_33_0_0
   + edge_31_33_0_0 + edge_32_33_0_0 + edge_35_33_0_0 + edge_36_33_0_0
   + edge_39_33_0_0 + edge_41_33_0_0 = 1
 consume_one_flow_unit_33: flow_25_33_0_0 + flow_28_33_0_0 + flow_30_33_0_0
   + flow_31_33_0_0 + flow_32_33_0_0 - flow_33_35_0_0 + flow_35_33_0_0
   + flow_36_33_0_0 + flow_39_33_0_0 + flow_41_33_0_0 = 1
 one_parent_34: = 1
 consume_one_flow_unit_34: = 1
 one_parent_35: edge_0_35_0_0 + edge_25_35_0_0 + edge_28_35_0_0
   + edge_30_35_0_0 + edge_31_35_0_0 + edge_32_35_0_0 + edge_33_35_0_0
   + edge_36_35_0_0 + edge_39_35_0_0 = 1
 consume_one_flow_unit_35: flow_0_35_0_0 + flow_25_35_0_0 + flow_28_35_0_0
   + flow_30_35_0_0 + flow_31_35_0_0 + flow_32_35_0_0 + flow_33_35_0_0
   - flow_35_25_0_0 - flow_35_26_0_0 - flow_35_27_0_0 - flow_35_28_0_0
   - flow_35_30_0_0 - flow_35_31_0_0 - flow_35_32_0_0 - flow_35_33_0_0
   - flow_35_36_0_0 - flow_35_37_0_0 - flow_35_39_0_0 - flow_35_40_0_0
   - flow_35_41_0_0 - flow_35_42_0_0 - flow_35_43_0_0 - flow_35_44_0_0
   - flow_35_46_0_0 - flow_35_47_0_0 - flow_35_48_0_0 - flow_35_49_0_0
   + flow_36_35_0_0 + flow_39_35_0_0 = 1
 one_parent_36: edge_25_36_0_0 + edge_28_36_0_0 + edge_30_36_0_0
   + edge_31_36_0_0 + edge_32_36_0_0 + edge_35_36_0_0 + edge_37_36_0_0
   + edge_39_36_0_0 + edge_41_36_0_0 = 1
 consume_one_flow_unit_36: flow_25_36_0_0 + flow_28_36_0_0 + flow_30_36_0_0
   + flow_31_36_0_0 + flow_32_36_0_0 + flow_35_36_0_0 - flow_36_25_0_0
   - flow_36_26_0_0 - flow_36_28_0_0 - flow_36_30_0_0 - flow_36_32_0_0
   - flow_36_33_0_0 - flow_36_35_0_0 - flow_36_37_0_0 - flow_36_39_0_0
   - flow_36_40_0_0 - flow_36_41_0_0 - flow_36_42_0_0 - flow_36_43_0_0
   - flow_36_44_0_0 - flow_36_46_0_0 - flow_36_47_0_0 - flow_36_48_0_0
   - flow_36_49_0_0 + flow_37_36_0_0 + flow_39_36_0_0 + flow_41_36_0_0 = 1
 one_parent_37: edge_30_37_0_0 + edge_35_37_0_0 + edge_36_37_0_0
   + edge_39_37_0_0 + edge_41_37_0_0 = 1
 consume_one_flow_unit_37: flow_30_37_0_0 + flow_35_37_0_0 + flow_36_37_0_0
   - flow_37_36_0_0 - flow_37_39_0_0 - flow_37_40_0_0 - flow_37_41_0_0
   - flow_37_43_0_0 - flow_37_48_0_0 + flow_39_37_0_0 + flow_41_37_0_0 = 1
 one_parent_38: edge_39_38_0_0 + edge_41_38_0_0 = 1
 consume_one_flow_unit_38: - flow_38_40_0_0 + flow_39_38_0_0
   + flow_41_38_0_0 = 1
 one_parent_39: edge_0_39_0_0 + edge_25_39_0_0 + edge_28_39_0_0
   + edge_30_39_0_0 + edge_32_39_0_0 + edge_35_39_0_0 + edge_36_39_0_0
   + edge_37_39_0_0 + edge_41_39_0_0 = 1
 consume_one_flow_unit_39: flow_0_39_0_0 + flow_25_39_0_0 + flow_28_39_0_0
   + flow_30_39_0_0 + flow_32_39_0_0 + flow_35_39_0_0 + flow_36_39_0_0
   + flow_37_39_0_0 - flow_39_25_0_0 - flow_39_26_0_0 - flow_39_27_0_0
   - flow_39_30_0_0 - flow_39_32_0_0 - flow_39_33_0_0 - flow_39_35_0_0
   - flow_39_36_0_0 - flow_39_37_0_0 - flow_39_38_0_0 - flow_39_40_0_0
   - flow_39_41_0_0 - flow_39_42_0_0 - flow_39_43_0_0 - flow_39_44_0_0
   - flow_39_46_0_0 - flow_39_47_0_0 - flow_39_48_0_0 - flow_39_49_0_0
   + flow_41_39_0_0 = 1
 one_parent_40: edge_35_40_0_0 + edge_36_40_0_0 + edge_37_40_0_0
   + edge_38_40_0_0 + edge_39_40_0_0 + edge_41_40_0_0 + edge_44_40_0_0 = 1
 consume_one_flow_unit_40: flow_35_40_0_0 + flow_36_40_0_0 + flow_37_40_0_0
   + flow_38_40_0_0 + flow_39_40_0_0 + flow_41_40_0_0 + flow_44_40_0_0 = 1
 one_parent_41: edge_30_41_0_0 + edge_32_41_0_0 + edge_35_41_0_0
   + edge_36_41_0_0 + edge_37_41_0_0 + edge_39_41_0_0 + edge_42_41_0_0
   + edge_44_41_0_0 + edge_47_41_0_0 = 1
 consume_one_flow_unit_41: flow_30_41_0_0 + flow_32_41_0_0 + flow_35_41_0_0
   + flow_36_41_0_0 + flow_37_41_0_0 + flow_39_41_0_0 - flow_41_25_0_0
   - flow_41_26_0_0 - flow_41_27_0_0 - flow_41_30_0_0 - flow_41_32_0_0
   - flow_41_33_0_0 - flow_41_36_0_0 - flow_41_37_0_0 - flow_41_38_0_0
   - flow_41_39_0_0 - flow_41_40_0_0 - flow_41_42_0_0 - flow_41_43_0_0
   - flow_41_44_0_0 - flow_41_46_0_0 - flow_41_47_0_0 - flow_41_49_0_0
   + flow_42_41_0_0 + flow_44_41_0_0 + flow_47_41_0_0 = 1
 one_parent_42: edge_30_42_0_0 + edge_32_42_0_0 + edge_35_42_0_0
   + edge_36_42_0_0 + edge_39_42_0_0 + edge_41_42_0_0 + edge_43_42_0_0
   + edge_44_42_0_0 + edge_47_42_0_0 = 1
 consume_one_flow_unit_42: flow_30_42_0_0 + flow_32_42_0_0 + flow_35_42_0_0
   + flow_36_42_0_0 + flow_39_42_0_0 + flow_41_42_0_0 - flow_42_41_0_0
   - flow_42_44_0_0 + flow_43_42_0_0 + flow_44_42_0_0 + flow_47_42_0_0 = 1
 one_parent_43: edge_25_43_0_0 + edge_30_43_0_0 + edge_32_43_0_0
   + edge_35_43_0_0 + edge_36_43_0_0 + edge_37_43_0_0 + edge_39_43_0_0
   + edge_41_43_0_0 + edge_44_43_0_0 + edge_47_43_0_0 = 1
 consume_one_flow_unit_43: flow_25_43_0_0 + flow_30_43_0_0 + flow_32_43_0_0
   + flow_35_43_0_0 + flow_36_43_0_0 + flow_37_43_0_0 + flow_39_43_0_0
   + flow_41_43_0_0 - flow_43_42_0_0 - flow_43_44_0_0 - flow_43_46_0_0
   + flow_44_43_0_0 + flow_47_43_0_0 = 1
 one_parent_44: edge_30_44_0_0 + edge_32_44_0_0 + edge_35_44_0_0
   + edge_36_44_0_0 + edge_39_44_0_0 + edge_41_44_0_0 + edge_42_44_0_0
   + edge_43_44_0_0 + edge_46_44_0_0 + edge_47_44_0_0 = 1
 consume_one_flow_unit_44: flow_30_44_0_0 + flow_32_44_0_0 + flow_35_44_0_0
   + flow_36_44_0_0 + flow_39_44_0_0 + flow_41_44_0_0 + flow_42_44_0_0
   + flow_43_44_0_0 - flow_44_40_0_0 - flow_44_41_0_0 - flow_44_42_0_0
   - flow_44_43_0_0 - flow_44_46_0_0 - flow_44_47_0_0 - flow_44_48_0_0
   - flow_44_49_0_0 + flow_46_44_0_0 + flow_47_44_0_0 = 1
 one_parent_45: = 1
 consume_one_flow_unit_45: = 1
 one_parent_46: edge_25_46_0_0 + edge_30_46_0_0 + edge_32_46_0_0
   + edge_35_46_0_0 + edge_36_46_0_0 + edge_39_46_0_0 + edge_41_46_0_0
   + edge_43_46_0_0 + edge_44_46_0_0 + edge_47_46_0_0 = 1
 consume_one_flow_unit_46: flow_25_46_0_0 + flow_30_46_0_0 + flow_32_46_0_0
   + flow_35_46_0_0 + flow_36_46_0_0 + flow_39_46_0_0 + flow_41_46_0_0
   + flow_43_46_0_0 + flow_44_46_0_0 - flow_46_44_0_0 - flow_46_47_0_0
   - flow_46_48_0_0 - flow_46_49_0_0 + flow_47_46_0_0 = 1
 one_parent_47: edge_30_47_0_0 + edge_32_47_0_0 + edge_35_47_0_0
   + edge_36_47_0_0 + edge_39_47_0_0 + edge_41_47_0_0 + edge_44_47_0_0
   + edge_46_47_0_0 + edge_48_47_0_0 + edge_49_47_0_0 = 1
 consume_one_flow_unit_47: flow_30_47_0_0 + flow_32_47_0_0 + flow_35_47_0_0
   + flow_36_47_0_0 + flow_39_47_0_0 + flow_41_47_0_0 + flow_44_47_0_0
   + flow_46_47_0_0 - flow_47_25_0_0 - flow_47_27_0_0 - flow_47_30_0_0
   - flow_47_41_0_0 - flow_47_42_0_0 - flow_47_43_0_0 - flow_47_44_0_0
   - flow_47_46_0_0 - flow_47_48_0_0 - flow_47_49_0_0 + flow_48_47_0_0
   + flow_49_47_0_0 = 1
 one_parent_48: edge_30_48_0_0 + edge_35_48_0_0 + edge_36_48_0_0
   + edge_37_48_0_0 + edge_39_48_0_0 + edge_44_48_0_0 + edge_46_48_0_0
   + edge_47_48_0_0 + edge_49_48_0_0 = 1
 consume_one_flow_unit_48: flow_30_48_0_0 + flow_35_48_0_0 + flow_36_48_0_0
   + flow_37_48_0_0 + flow_39_48_0_0 + flow_44_48_0_0 + flow_46_48_0_0
   + flow_47_48_0_0 - flow_48_47_0_0 - flow_48_49_0_0 + flow_49_48_0_0 = 1
 one_parent_49: edge_30_49_0_0 + edge_35_49_0_0 + edge_36_49_0_0
   + edge_39_49_0_0 + edge_41_49_0_0 + edge_44_49_0_0 + edge_46_49_0_0
   + edge_47_49_0_0 + edge_48_49_0_0 = 1
 consume_one_flow_unit_49: flow_30_49_0_0 + flow_35_49_0_0 + flow_36_49_0_0
   + flow_39_49_0_0 + flow_41_49_0_0 + flow_44_49_0_0 + flow_46_49_0_0
   + flow_47_49_0_0 + flow_48_49_0_0 - flow_49_47_0_0 - flow_49_48_0_0 = 1
 one_parent_50: = 1
 consume_one_flow_unit_50: = 1
 root_flow: flow_0_30_0_0 + flow_0_32_0_0 + flow_0_35_0_0 + flow_0_39_0_0
   = 50
 inactive_no_flow_0_30_0_0: flow_0_30_0_0 - 1000 edge_0_30_0_0 <= 0
 inactive_no_flow_0_32_0_0: flow_0_32_0_0 - 1000 edge_0_32_0_0 <= 0
 inactive_no_flow_0_35_0_0: flow_0_35_0_0 - 1000 edge_0_35_0_0 <= 0
 inactive_no_flow_0_39_0_0: flow_0_39_0_0 - 1000 edge_0_39_0_0 <= 0
 inactive_no_flow_25_26_0_0: flow_25_26_0_0 - 1000 edge_25_26_0_0 <= 0
 inactive_no_flow_25_27_0_0: flow_25_27_0_0 - 1000 edge_25_27_0_0 <= 0
 inactive_no_flow_25_28_0_0: flow_25_28_0_0 - 1000 edge_25_28_0_0 <= 0
 inactive_no_flow_25_30_0_0: flow_25_30_0_0 - 1000 edge_25_30_0_0 <= 0
 inactive_no_flow_25_33_0_0: flow_25_33_0_0 - 1000 edge_25_33_0_0 <= 0
 inactive_no_flow_25_35_0_0: flow_25_35_0_0 - 1000 edge_25_35_0_0 <= 0
 inactive_no_flow_25_36_0_0: flow_25_36_0_0 - 1000 edge_25_36_0_0 <= 0
 inactive_no_flow_25_39_0_0: flow_25_39_0_0 - 1000 edge_25_39_0_0 <= 0
 inactive_no_flow_25_43_0_0: flow_25_43_0_0 - 1000 edge_25_43_0_0 <= 0
 inactive_no_flow_25_46_0_0: flow_25_46_0_0 - 1000 edge_25_46_0_0 <= 0
 inactive_no_flow_26_25_0_0: flow_26_25_0_0 - 1000 edge_26_25_0_0 <= 0
 inactive_no_flow_26_27_0_0: flow_26_27_0_0 - 1000 edge_26_27_0_0 <= 0
 inactive_no_flow_27_25_0_0: flow_27_25_0_0 - 1000 edge_27_25_0_0 <= 0
 inactive_no_flow_27_26_0_0: flow_27_26_0_0 - 1000 edge_27_26_0_0 <= 0
 inactive_no_flow_27_28_0_0: flow_27_28_0_0 - 1000 edge_27_28_0_0 <= 0
 inactive_no_flow_28_26_0_0: flow_28_26_0_0 - 1000 edge_28_26_0_0 <= 0
 inactive_no_flow_28_27_0_0: flow_28_27_0_0 - 1000 edge_28_27_0_0 <= 0
 inactive_no_flow_28_30_0_0: flow_28_30_0_0 - 1000 edge_28_30_0_0 <= 0
 inactive_no_flow_28_32_0_0: flow_28_32_0_0 - 1000 edge_28_32_0_0 <= 0
 inactive_no_flow_28_33_0_0: flow_28_33_0_0 - 1000 edge_28_33_0_0 <= 0
 inactive_no_flow_28_35_0_0: flow_28_35_0_0 - 1000 edge_28_35_0_0 <= 0
 inactive_no_flow_28_36_0_0: flow_28_36_0_0 - 1000 edge_28_36_0_0 <= 0
 inactive_no_flow_28_39_0_0: flow_28_39_0_0 - 1000 edge_28_39_0_0 <= 0
 inactive_no_flow_30_25_0_0: flow_30_25_0_0 - 1000 edge_30_25_0_0 <= 0
 inactive_no_flow_30_26_0_0: flow_30_26_0_0 - 1000 edge_30_26_0_0 <= 0
 inactive_no_flow_30_27_0_0: flow_30_27_0_0 - 1000 edge_30_27_0_0 <= 0
 inactive_no_flow_30_28_0_0: flow_30_28_0_0 - 1000 edge_30_28_0_0 <= 0
 inactive_no_flow_30_31_0_0: flow_30_31_0_0 - 1000 edge_30_31_0_0 <= 0
 inactive_no_flow_30_32_0_0: flow_30_32_0_0 - 1000 edge_30_32_0_0 <= 0
 inactive_no_flow_30_33_0_0: flow_30_33_0_0 - 1000 edge_30_33_0_0 <= 0
 inactive_no_flow_30_35_0_0: flow_30_35_0_0 - 1000 edge_30_35_0_0 <= 0
 inactive_no_flow_30_36_0_0: flow_30_36_0_0 - 1000 edge_30_36_0_0 <= 0
 inactive_no_flow_30_37_0_0: flow_30_37_0_0 - 1000 edge_30_37_0_0 <= 0
 inactive_no_flow_30_39_0_0: flow_30_39_0_0 - 1000 edge_30_39_0_0 <= 0
 inactive_no_flow_30_41_0_0: flow_30_41_0_0 - 1000 edge_30_41_0_0 <= 0
 inactive_no_flow_30_42_0_0: flow_30_42_0_0 - 1000 edge_30_42_0_0 <= 0
 inactive_no_flow_30_43_0_0: flow_30_43_0_0 - 1000 edge_30_43_0_0 <= 0
 inactive_no_flow_30_44_0_0: flow_30_44_0_0 - 1000 edge_30_44_0_0 <= 0
 inactive_no_flow_30_46_0_0: flow_30_46_0_0 - 1000 edge_30_46_0_0 <= 0
 inactive_no_flow_30_47_0_0: flow_30_47_0_0 - 1000 edge_30_47_0_0 <= 0
 inactive_no_flow_30_48_0_0: flow_30_48_0_0 - 1000 edge_30_48_0_0 <= 0
 inactive_no_flow_30_49_0_0: flow_30_49_0_0 - 1000 edge_30_49_0_0 <= 0
 inactive_no_flow_31_28_0_0: flow_31_28_0_0 - 1000 edge_31_28_0_0 <= 0
 inactive_no_flow_31_33_0_0: flow_31_33_0_0 - 1000 edge_31_33_0_0 <= 0
 inactive_no_flow_31_35_0_0: flow_31_35_0_0 - 1000 edge_31_35_0_0 <= 0
 inactive_no_flow_31_36_0_0: flow_31_36_0_0 - 1000 edge_31_36_0_0 <= 0
 inactive_no_flow_32_25_0_0: flow_32_25_0_0 - 1000 edge_32_25_0_0 <= 0
 inactive_no_flow_32_26_0_0: flow_32_26_0_0 - 1000 edge_32_26_0_0 <= 0
 inactive_no_flow_32_27_0_0: flow_32_27_0_0 - 1000 edge_32_27_0_0 <= 0
 inactive_no_flow_32_28_0_0: flow_32_28_0_0 - 1000 edge_32_28_0_0 <= 0
 inactive_no_flow_32_30_0_0: flow_32_30_0_0 - 1000 edge_32_30_0_0 <= 0
 inactive_no_flow_32_31_0_0: flow_32_31_0_0 - 1000 edge_32_31_0_0 <= 0
 inactive_no_flow_32_33_0_0: flow_32_33_0_0 - 1000 edge_32_33_0_0 <= 0
 inactive_no_flow_32_35_0_0: flow_32_35_0_0 - 1000 edge_32_35_0_0 <= 0
 inactive_no_flow_32_36_0_0: flow_32_36_0_0 - 1000 edge_32_36_0_0 <= 0
 inactive_no_flow_32_39_0_0: flow_32_39_0_0 - 1000 edge_32_39_0_0 <= 0
 inactive_no_flow_32_41_0_0: flow_32_41_0_0 - 1000 edge_32_41_0_0 <= 0
 inactive_no_flow_32_42_0_0: flow_32_42_0_0 - 1000 edge_32_42_0_0 <= 0
 inactive_no_flow_32_43_0_0: flow_32_43_0_0 - 1000 edge_32_43_0_0 <= 0
 inactive_no_flow_32_44_0_0: flow_32_44_0_0 - 1000 edge_32_44_0_0 <= 0
 inactive_no_flow_32_46_0_0: flow_32_46_0_0 - 1000 edge_32_46_0_0 <= 0
 inactive_no_flow_32_47_0_0: flow_32_47_0_0 - 1000 edge_32_47_0_0 <= 0
 inactive_no_flow_33_35_0_0: flow_33_35_0_0 - 1000 edge_33_35_0_0 <= 0
 inactive_no_flow_35_25_0_0: flow_35_25_0_0 - 1000 edge_35_25_0_0 <= 0
 inactive_no_flow_35_26_0_0: flow_35_26_0_0 - 1000 edge_35_26_0_0 <= 0
 inactive_no_flow_35_27_0_0: flow_35_27_0_0 - 1000 edge_35_27_0_0 <= 0
 inactive_no_flow_35_28_0_0: flow_35_28_0_0 - 1000 edge_35_28_0_0 <= 0
 inactive_no_flow_35_30_0_0: flow_35_30_0_0 - 1000 edge_35_30_0_0 <= 0
 inactive_no_flow_35_31_0_0: flow_35_31_0_0 - 1000 edge_35_31_0_0 <= 0
 inactive_no_flow_35_32_0_0: flow_35_32_0_0 - 1000 edge_35_32_0_0 <= 0
 inactive_no_flow_35_33_0_0: flow_35_33_0_0 - 1000 edge_35_33_0_0 <= 0
 inactive_no_flow_35_36_0_0: flow_35_36_0_0 - 1000 edge_35_36_0_0 <= 0
 inactive_no_flow_35_37_0_0: flow_35_37_0_0 - 1000 edge_35_37_0_0 <= 0
 inactive_no_flow_35_39_0_0: flow_35_39_0_0 - 1000 edge_35_39_0_0 <= 0
 inactive_no_flow_35_40_0_0: flow_35_40_0_0 - 1000 edge_35_40_0_0 <= 0
 inactive_no_flow_35_41_0_0: flow_35_41_0_0 - 1000 edge_35_41_0_0 <= 0
 inactive_no_flow_35_42_0_0: flow_35_42_0_0 - 1000 edge_35_42_0_0 <= 0
 inactive_no_flow_35_43_0_0: flow_35_43_0_0 - 1000 edge_35_43_0_0 <= 0
 inactive_no_flow_35_44_0_0: flow_35_44_0_0 - 1000 edge_35_44_0_0 <= 0
 inactive_no_flow_35_46_0_0: flow_35_46_0_0 - 1000 edge_35_46_0_0 <= 0
 inactive_no_flow_35_47_0_0: flow_35_47_0_0 - 1000 edge_35_47_0_0 <= 0
 inactive_no_flow_35_48_0_0: flow_35_48_0_0 - 1000 edge_35_48_0_0 <= 0
 inactive_no_flow_35_49_0_0: flow_35_49_0_0 - 1000 edge_35_49_0_0 <= 0
 inactive_no_flow_36_25_0_0: flow_36_25_0_0 - 1000 edge_36_25_0_0 <= 0
 inactive_no_flow_36_26_0_0: flow_36_26_0_0 - 1000 edge_36_26_0_0 <= 0
 inactive_no_flow_36_28_0_0: flow_36_28_0_0 - 1000 edge_36_28_0_0 <= 0
 inactive_no_flow_36_30_0_0: flow_36_30_0_0 - 1000 edge_36_30_0_0 <= 0
 inactive_no_flow_36_32_0_0: flow_36_32_0_0 - 1000 edge_36_32_0_0 <= 0
 inactive_no_flow_36_33_0_0: flow_36_33_0_0 - 1000 edge_36_33_0_0 <= 0
 inactive_no_flow_36_35_0_0: flow_36_35_0_0 - 1000 edge_36_35_0_0 <= 0
 inactive_no_flow_36_37_0_0: flow_36_37_0_0 - 1000 edge_36_37_0_0 <= 0
 inactive_no_flow_36_39_0_0: flow_36_39_0_0 - 1000 edge_36_39_0_0 <= 0
 inactive_no_flow_36_40_0_0: flow_36_40_0_0 - 1000 edge_36_40_0_0 <= 0
 inactive_no_flow_36_41_0_0: flow_36_41_0_0 - 1000 edge_36_41_0_0 <= 0
 inactive_no_flow_36_42_0_0: flow_36_42_0_0 - 1000 edge_36_42_0_0 <= 0
 inactive_no_flow_36_43_0_0: flow_36_43_0_0 - 1000 edge_36_43_0_0 <= 0
 inactive_no_flow_36_44_0_0: flow_36_44_0_0 - 1000 edge_36_44_0_0 <= 0
 inactive_no_flow_36_46_0_0: flow_36_46_0_0 - 1000 edge_36_46_0_0 <= 0
 inactive_no_flow_36_47_0_0: flow_36_47_0_0 - 1000 edge_36_47_0_0 <= 0
 inactive_no_flow_36_48_0_0: flow_36_48_0_0 - 1000 edge_36_48_0_0 <= 0
 inactive_no_flow_36_49_0_0: flow_36_49_0_0 - 1000 edge_36_49_0_0 <= 0
 inactive_no_flow_37_36_0_0: flow_37_36_0_0 - 1000 edge_37_36_0_0 <= 0
 inactive_no_flow_37_39_0_0: flow_37_39_0_0 - 1000 edge_37_39_0_0 <= 0
 inactive_no_flow_37_40_0_0: flow_37_40_0_0 - 1000 edge_37_40_0_0 <= 0
 inactive_no_flow_37_41_0_0: flow_37_41_0_0 - 1000 edge_37_41_0_0 <= 0
 inactive_no_flow_37_43_0_0: flow_37_43_0_0 - 1000 edge_37_43_0_0 <= 0
 inactive_no_flow_37_48_0_0: flow_37_48_0_0 - 1000 edge_37_48_0_0 <= 0
 inactive_no_flow_38_40_0_0: flow_38_40_0_0 - 1000 edge_38_40_0_0 <= 0
 inactive_no_flow_39_25_0_0: flow_39_25_0_0 - 1000 edge_39_25_0_0 <= 0
 inactive_no_flow_39_26_0_0: flow_39_26_0_0 - 1000 edge_39_26_0_0 <= 0
 inactive_no_flow_39_27_0_0: flow_39_27_0_0 - 1000 edge_39_27_0_0 <= 0
 inactive_no_flow_39_30_0_0: flow_39_30_0_0 - 1000 edge_39_30_0_0 <= 0
 inactive_no_flow_39_32_0_0: flow_39_32_0_0 - 1000 edge_39_32_0_0 <= 0
 inactive_no_flow_39_33_0_0: flow_39_33_0_0 - 1000 edge_39_33_0_0 <= 0
 inactive_no_flow_39_35_0_0: flow_39_35_0_0 - 1000 edge_39_35_0_0 <= 0
 inactive_no_flow_39_36_0_0: flow_39_36_0_0 - 1000 edge_39_36_0_0 <= 0
 inactive_no_flow_39_37_0_0: flow_39_37_0_0 - 1000 edge_39_37_0_0 <= 0
 inactive_no_flow_39_38_0_0: flow_39_38_0_0 - 1000 edge_39_38_0_0 <= 0
 inactive_no_flow_39_40_0_0: flow_39_40_0_0 - 1000 edge_39_40_0_0 <= 0
 inactive_no_flow_39_41_0_0: flow_39_41_0_0 - 1000 edge_39_41_0_0 <= 0
 inactive_no_flow_39_42_0_0: flow_39_42_0_0 - 1000 edge_39_42_0_0 <= 0
 inactive_no_flow_39_43_0_0: flow_39_43_0_0 - 1000 edge_39_43_0_0 <= 0
 inactive_no_flow_39_44_0_0: flow_39_44_0_0 - 1000 edge_39_44_0_0 <= 0
 inactive_no_flow_39_46_0_0: flow_39_46_0_0 - 1000 edge_39_46_0_0 <= 0
 inactive_no_flow_39_47_0_0: flow_39_47_0_0 - 1000 edge_39_47_0_0 <= 0
 inactive_no_flow_39_48_0_0: flow_39_48_0_0 - 1000 edge_39_48_0_0 <= 0
 inactive_no_flow_39_49_0_0: flow_39_49_0_0 - 1000 edge_39_49_0_0 <= 0
 inactive_no_flow_41_25_0_0: flow_41_25_0_0 - 1000 edge_41_25_0_0 <= 0
 inactive_no_flow_41_26_0_0: flow_41_26_0_0 - 1000 edge_41_26_0_0 <= 0
 inactive_no_flow_41_27_0_0: flow_41_27_0_0 - 1000 edge_41_27_0_0 <= 0
 inactive_no_flow_41_30_0_0: flow_41_30_0_0 - 1000 edge_41_30_0_0 <= 0
 inactive_no_flow_41_32_0_0: flow_41_32_0_0 - 1000 edge_41_32_0_0 <= 0
 inactive_no_flow_41_33_0_0: flow_41_33_0_0 - 1000 edge_41_33_0_0 <= 0
 inactive_no_flow_41_36_0_0: flow_41_36_0_0 - 1000 edge_41_36_0_0 <= 0
 inactive_no_flow_41_37_0_0: flow_41_37_0_0 - 1000 edge_41_37_0_0 <= 0
 inactive_no_flow_41_38_0_0: flow_41_38_0_0 - 1000 edge_41_38_0_0 <= 0
 inactive_no_flow_41_39_0_0: flow_41_39_0_0 - 1000 edge_41_39_0_0 <= 0
 inactive_no_flow_41_40_0_0: flow_41_40_0_0 - 1000 edge_41_40_0_0 <= 0
 inactive_no_flow_41_42_0_0: flow_41_42_0_0 - 1000 edge_41_42_0_0 <= 0
 inactive_no_flow_41_43_0_0: flow_41_43_0_0 - 1000 edge_41_43_0_0 <= 0
 inactive_no_flow_41_44_0_0: flow_41_44_0_0 - 1000 edge_41_44_0_0 <= 0
 inactive_no_flow_41_46_0_0: flow_41_46_0_0 - 1000 edge_41_46_0_0 <= 0
 inactive_no_flow_41_47_0_0: flow_41_47_0_0 - 1000 edge_41_47_0_0 <= 0
 inactive_no_flow_41_49_0_0: flow_41_49_0_0 - 1000 edge_41_49_0_0 <= 0
 inactive_no_flow_42_41_0_0: flow_42_41_0_0 - 1000 edge_42_41_0_0 <= 0
 inactive_no_flow_42_44_0_0: flow_42_44_0_0 - 1000 edge_42_44_0_0 <= 0
 inactive_no_flow_43_42_0_0: flow_43_42_0_0 - 1000 edge_43_42_0_0 <= 0
 inactive_no_flow_43_44_0_0: flow_43_44_0_0 - 1000 edge_43_44_0_0 <= 0
 inactive_no_flow_43_46_0_0: flow_43_46_0_0 - 1000 edge_43_46_0_0 <= 0
 inactive_no_flow_44_40_0_0: flow_44_40_0_0 - 1000 edge_44_40_0_0 <= 0
 inactive_no_flow_44_41_0_0: flow_44_41_0_0 - 1000 edge_44_41_0_0 <= 0
 inactive_no_flow_44_42_0_0: flow_44_42_0_0 - 1000 edge_44_42_0_0 <= 0
 inactive_no_flow_44_43_0_0: flow_44_43_0_0 - 1000 edge_44_43_0_0 <= 0
 inactive_no_flow_44_46_0_0: flow_44_46_0_0 - 1000 edge_44_46_0_0 <= 0
 inactive_no_flow_44_47_0_0: flow_44_47_0_0 - 1000 edge_44_47_0_0 <= 0
 inactive_no_flow_44_48_0_0: flow_44_48_0_0 - 1000 edge_44_48_0_0 <= 0
 inactive_no_flow_44_49_0_0: flow_44_49_0_0 - 1000 edge_44_49_0_0 <= 0
 inactive_no_flow_46_44_0_0: flow_46_44_0_0 - 1000 edge_46_44_0_0 <= 0
 inactive_no_flow_46_47_0_0: flow_46_47_0_0 - 1000 edge_46_47_0_0 <= 0
 inactive_no_flow_46_48_0_0: flow_46_48_0_0 - 1000 edge_46_48_0_0 <= 0
 inactive_no_flow_46_49_0_0: flow_46_49_0_0 - 1000 edge_46_49_0_0 <= 0
 inactive_no_flow_47_25_0_0: flow_47_25_0_0 - 1000 edge_47_25_0_0 <= 0
 inactive_no_flow_47_27_0_0: flow_47_27_0_0 - 1000 edge_47_27_0_0 <= 0
 inactive_no_flow_47_30_0_0: flow_47_30_0_0 - 1000 edge_47_30_0_0 <= 0
 inactive_no_flow_47_41_0_0: flow_47_41_0_0 - 1000 edge_47_41_0_0 <= 0
 inactive_no_flow_47_42_0_0: flow_47_42_0_0 - 1000 edge_47_42_0_0 <= 0
 inactive_no_flow_47_43_0_0: flow_47_43_0_0 - 1000 edge_47_43_0_0 <= 0
 inactive_no_flow_47_44_0_0: flow_47_44_0_0 - 1000 edge_47_44_0_0 <= 0
 inactive_no_flow_47_46_0_0: flow_47_46_0_0 - 1000 edge_47_46_0_0 <= 0
 inactive_no_flow_47_48_0_0: flow_47_48_0_0 - 1000 edge_47_48_0_0 <= 0
 inactive_no_flow_47_49_0_0: flow_47_49_0_0 - 1000 edge_47_49_0_0 <= 0
 inactive_no_flow_48_47_0_0: flow_48_47_0_0 - 1000 edge_48_47_0_0 <= 0
 inactive_no_flow_48_49_0_0: flow_48_49_0_0 - 1000 edge_48_49_0_0 <= 0
 inactive_no_flow_49_47_0_0: flow_49_47_0_0 - 1000 edge_49_47_0_0 <= 0
 inactive_no_flow_49_48_0_0: flow_49_48_0_0 - 1000 edge_49_48_0_0 <= 0
Bounds
Binaries
 edge_0_30_0_0 edge_0_32_0_0 edge_0_35_0_0 edge_0_39_0_0 edge_25_26_0_0
 edge_25_27_0_0 edge_25_28_0_0 edge_25_30_0_0 edge_25_33_0_0 edge_25_35_0_0
 edge_25_36_0_0 edge_25_39_0_0 edge_25_43_0_0 edge_25_46_0_0 edge_26_25_0_0
 edge_26_27_0_0 edge_27_25_0_0 edge_27_26_0_0 edge_27_28_0_0 edge_28_26_0_0
 edge_28_27_0_0 edge_28_30_0_0 edge_28_32_0_0 edge_28_33_0_0 edge_28_35_0_0
 edge_28_36_0_0 edge_28_39_0_0 edge_30_25_0_0 edge_30_26_0_0 edge_30_27_0_0
 edge_30_28_0_0 edge_30_31_0_0 edge_30_32_0_0 edge_30_33_0_0 edge_30_35_0_0
 edge_30_36_0_0 edge_30_37_0_0 edge_30_39_0_0 edge_30_41_0_0 edge_30_42_0_0
 edge_30_43_0_0 edge_30_44_0_0 edge_30_46_0_0 edge_30_47_0_0 edge_30_48_0_0
 edge_30_49_0_0 edge_31_28_0_0 edge_31_33_0_0 edge_31_35_0_0 edge_31_36_0_0
 edge_32_25_0_0 edge_32_26_0_0 edge_32_27_0_0 edge_32_28_0_0 edge_32_30_0_0
 edge_32_31_0_0 edge_32_33_0_0 edge_32_35_0_0 edge_32_36_0_0 edge_32_39_0_0
 edge_32_41_0_0 edge_32_42_0_0 edge_32_43_0_0 edge_32_44_0_0 edge_32_46_0_0
 edge_32_47_0_0 edge_33_35_0_0 edge_35_25_0_0 edge_35_26_0_0 edge_35_27_0_0
 edge_35_28_0_0 edge_35_30_0_0 edge_35_31_0_0 edge_35_32_0_0 edge_35_33_0_0
 edge_35_36_0_0 edge_35_37_0_0 edge_35_39_0_0 edge_35_40_0_0 edge_35_41_0_0
 edge_35_42_0_0 edge_35_43_0_0 edge_35_44_0_0 edge_35_46_0_0 edge_35_47_0_0
 edge_35_48_0_0 edge_35_49_0_0 edge_36_25_0_0 edge_36_26_0_0 edge_36_28_0_0
 edge_36_30_0_0 edge_36_32_0_0 edge_36_33_0_0 edge_36_35_0_0 edge_36_37_0_0
 edge_36_39_0_0 edge_36_40_0_0 edge_36_41_0_0 edge_36_42_0_0 edge_36_43_0_0
 edge_36_44_0_0 edge_36_46_0_0 edge_36_47_0_0 edge_36_48_0_0 edge_36_49_0_0
 edge_37_36_0_0 edge_37_39_0_0 edge_37_40_0_0 edge_37_41_0_0 edge_37_43_0_0
 edge_37_48_0_0 edge_38_40_0_0 edge_39_25_0_0 edge_39_26_0_0 edge_39_27_0_0
 edge_39_30_0_0 edge_39_32_0_0 edge_39_33_0_0 edge_39_35_0_0 edge_39_36_0_0
 edge_39_37_0_0 edge_39_38_0_0 edge_39_40_0_0 edge_39_41_0_0 edge_39_42_0_0
 edge_39_43_0_0 edge_39_44_0_0 edge_39_46_0_0 edge_39_47_0_0 edge_39_48_0_0
 edge_39_49_0_0 edge_41_25_0_0 edge_41_26_0_0 edge_41_27_0_0 edge_41_30_0_0
 edge_41_32_0_0 edge_41_33_0_0 edge_41_36_0_0 edge_41_37_0_0 edge_41_38_0_0
 edge_41_39_0_0 edge_41_40_0_0 edge_41_42_0_0 edge_41_43_0_0 edge_41_44_0_0
 edge_41_46_0_0 edge_41_47_0_0 edge_41_49_0_0 edge_42_41_0_0 edge_42_44_0_0
 edge_43_42_0_0 edge_43_44_0_0 edge_43_46_0_0 edge_44_40_0_0 edge_44_41_0_0
 edge_44_42_0_0 edge_44_43_0_0 edge_44_46_0_0 edge_44_47_0_0 edge_44_48_0_0
 edge_44_49_0_0 edge_46_44_0_0 edge_46_47_0_0 edge_46_48_0_0 edge_46_49_0_0
 edge_47_25_0_0 edge_47_27_0_0 edge_47_30_0_0 edge_47_41_0_0 edge_47_42_0_0
 edge_47_43_0_0 edge_47_44_0_0 edge_47_46_0_0 edge_47_48_0_0 edge_47_49_0_0
 edge_48_47_0_0 edge_48_49_0_0 edge_49_47_0_0 edge_49_48_0_0
End
